data;

param pn := 5;
param ln := 8;
param hn := 4;

param e := 1 8, 2 6, 3 15, 4 8, 5 15;
param v := 1 0, 2 4, 3 0, 4 2, 5 0;
param c := 1 3, 2 3, 3 3, 4 3, 5 3, 6 3, 7 3, 8 3;
param t := 1 2, 2 2, 3 2, 4 2, 5 2, 6 2, 7 2, 8 2;
param d :   1   2   3   4   :=
    1       10  120 50  60
    2       40  80  20  120
    3       70  40  10  130
    4       120 100 160 10
    5       70  30  120 70;
param DM := 100;

end;

/* 60, 70, 100, 150 */
/* 6, 5, 4, 3 */
